GLPSOL--GLPK LP/MIP Solver 5.0
Parameter(s) specified in the command line:
 --lp ../modeles/20_404.lp --log 20_404.log
Reading problem data from '../modeles/20_404.lp'...
8161 rows, 16200 columns, 56620 non-zeros
8080 integer variables, all of which are binary
24387 lines were read
GLPK Integer Optimizer 5.0
8161 rows, 16200 columns, 56620 non-zeros
8080 integer variables, all of which are binary
Preprocessing...
7960 constraint coefficient(s) were reduced
8161 rows, 16180 columns, 56600 non-zeros
8080 integer variables, all of which are binary
Scaling...
 A: min|aij| =  9.803e-05  max|aij| =  4.000e+00  ratio =  4.080e+04
GM: min|aij| =  7.036e-02  max|aij| =  1.421e+01  ratio =  2.020e+02
EQ: min|aij| =  4.950e-03  max|aij| =  1.000e+00  ratio =  2.020e+02
2N: min|aij| =  3.906e-03  max|aij| =  1.766e+00  ratio =  4.521e+02
Constructing initial basis...
Size of triangular part is 8161
Solving LP relaxation...
GLPK Simplex Optimizer 5.0
8161 rows, 16180 columns, 56600 non-zeros
      0: obj =   4.000000000e+01 inf =   9.950e+01 (41)
Perturbing LP to avoid stalling [199]...
    459: obj =   2.042449420e-01 inf =   0.000e+00 (0)
Removing LP perturbation [1401]...
*  1401: obj =  -4.471067107e+00 inf =   2.899e-14 (0) 1
OPTIMAL LP SOLUTION FOUND
Integer optimization begins...
Long-step dual simplex will be used
+  1401: mip =     not found yet >=              -inf        (1; 0)
+  1404: >>>>>  -4.471067107e+00 >=  -4.471067107e+00 < 0.1% (4; 0)
+  1404: mip =  -4.471067107e+00 >=     tree is empty   0.0% (0; 7)
INTEGER OPTIMAL SOLUTION FOUND
Time used:   0.6 secs
Memory used: 23.4 Mb (24565428 bytes)
